 200 59 
 30 2 83 38 13 71 30 2 14 61 83 43 
 45 84 63 44 22 25 15 100 17 13 24 82 
 65 83 70 10 90 91 19 37 55 49 11 21 
 14 40 91 10 43 2 57 46 31 64 65 1 
 62 78 1 2 15 11 46 3 2 54 94 
 10 
 5 20 21 22 24 30 32 33 39 40 
 36 
 1 2 4 6 8 9 10 12 13 14 16 17 
 20 21 24 25 26 27 28 31 32 34 37 39 
 42 45 47 49 51 52 53 54 55 56 58 59 
 12 
 2 6 17 25 27 29 35 36 42 43 51 57 
 20 
 4 7 8 15 17 25 28 31 34 36 38 39 
 42 43 44 48 49 50 56 59 
 16 
 4 15 18 24 27 29 33 34 35 44 45 47 
 51 52 53 54 
 37 
 1 2 3 6 8 11 12 13 15 17 19 22 
 23 25 26 29 32 33 37 38 39 40 41 42 
 43 44 45 46 47 48 49 50 52 55 56 58 
 59 
 7 
 8 14 28 32 39 58 59 
 42 
 1 3 7 8 9 10 14 15 16 21 22 23 
 24 26 27 28 29 30 32 33 34 35 36 38 
 39 40 42 43 46 47 48 49 50 51 52 53 
 54 55 56 57 58 59 
 4 
 17 30 41 51 
 59 
 1 2 3 4 5 6 7 8 9 10 11 12 
 13 14 15 16 17 18 19 20 21 22 23 24 
 25 26 27 28 29 30 31 32 33 34 35 36 
 37 38 39 40 41 42 43 44 45 46 47 48 
 49 50 51 52 53 54 55 56 57 58 59 
 35 
 3 5 7 8 11 12 16 19 23 24 25 26 
 27 28 29 30 32 34 35 38 39 41 42 43 
 44 46 47 48 50 52 54 55 56 58 59 
 41 
 1 2 3 5 6 7 8 9 11 15 16 17 
 19 20 21 22 23 25 26 27 29 30 35 36 
 37 39 40 41 42 43 45 48 49 50 51 52 
 53 54 56 58 59 
 59 
 1 2 3 4 5 6 7 8 9 10 11 12 
 13 14 15 16 17 18 19 20 21 22 23 24 
 25 26 27 28 29 30 31 32 33 34 35 36 
 37 38 39 40 41 42 43 44 45 46 47 48 
 49 50 51 52 53 54 55 56 57 58 59 
 40 
 1 3 4 7 8 10 11 12 13 14 15 16 
 17 18 19 21 22 23 24 26 27 29 31 33 
 34 36 37 38 40 41 42 43 46 47 49 51 
 52 57 58 59 
 29 
 1 2 5 7 8 10 15 16 19 22 23 26 
 28 29 30 34 35 36 39 40 45 48 49 51 
 53 54 56 58 59 
 3 
 10 30 53 
 34 
 1 2 3 4 5 7 8 9 12 13 15 17 
 20 22 23 24 26 29 30 31 32 39 40 41 
 44 45 47 48 49 51 52 54 56 57 
 19 
 4 6 7 13 14 17 21 23 27 29 32 34 
 35 38 43 44 47 50 56 
 40 
 2 3 4 6 7 8 9 10 12 13 14 15 
 16 17 18 22 23 24 25 26 27 28 29 31 
 32 33 35 36 40 42 43 45 46 49 50 51 
 53 54 57 58 
 44 
 1 2 3 5 6 8 9 10 11 12 14 15 
 16 17 19 20 21 23 24 25 26 27 29 30 
 33 36 38 39 40 41 42 43 46 47 48 49 
 50 51 53 54 55 56 57 59 
 3 
 10 23 24 
 2 
 29 41 
 54 
 1 2 3 4 5 6 7 8 9 10 11 12 
 13 15 16 17 18 19 20 21 22 23 24 25 
 27 28 29 30 32 33 34 35 36 37 39 40 
 41 42 43 44 45 46 47 48 49 50 51 52 
 53 54 55 56 57 59 
 10 
 5 17 34 35 38 42 48 49 51 57 
 43 
 1 4 5 6 7 8 9 10 11 13 15 17 
 19 21 22 23 24 25 26 27 28 32 34 35 
 36 38 39 41 42 43 44 46 47 48 49 50 
 51 52 54 55 56 57 58 
 23 
 5 6 8 11 12 13 19 21 23 24 29 32 
 33 39 40 41 43 44 46 49 54 58 59 
 23 
 2 7 12 14 17 24 26 27 28 32 34 35 
 37 38 39 43 46 49 52 53 54 57 58 
 4 
 12 14 37 54 
 14 
 2 3 4 11 17 24 25 27 28 31 32 37 
 41 44 
 26 
 3 4 5 6 7 8 12 13 14 19 20 21 
 25 29 32 34 35 38 40 41 44 46 48 51 
 52 55 
 6 
 2 22 25 44 46 47 
 30 
 2 6 7 9 10 13 16 17 18 19 20 22 
 24 25 29 30 31 32 34 35 36 37 41 42 
 46 47 48 49 51 55 
 31 
 3 4 6 7 8 10 11 12 14 15 16 19 
 20 28 29 30 32 35 36 37 38 41 45 46 
 48 51 52 53 54 58 59 
 17 
 9 10 12 14 16 17 24 26 27 30 37 38 
 40 51 52 56 58 
 56 
 1 2 3 4 5 7 8 9 10 11 12 13 
 14 15 16 17 18 19 21 22 23 24 25 26 
 27 28 29 30 31 32 33 34 35 37 38 39 
 40 41 42 43 44 45 46 47 48 49 50 51 
 52 53 54 55 56 57 58 59 
 2 
 26 55 
 57 
 1 2 3 4 5 6 7 8 9 10 11 12 
 13 14 15 16 17 18 19 20 21 23 24 25 
 26 27 28 29 30 31 32 33 34 35 37 38 
 39 40 41 42 43 44 45 46 47 48 49 50 
 51 52 53 54 55 56 57 58 59 
 31 
 4 5 6 7 8 12 16 17 24 25 27 29 
 31 32 33 34 36 37 39 41 42 43 44 46 
 47 49 50 52 53 56 58 
 22 
 4 10 11 12 14 17 19 20 22 23 26 30 
 31 35 39 42 46 47 51 54 56 59 
 51 
 2 3 4 5 6 7 10 11 13 14 16 18 
 19 20 21 22 23 24 25 26 27 28 29 30 
 31 32 33 34 35 36 37 39 40 42 43 44 
 45 46 47 48 49 50 51 52 53 54 55 56 
 57 58 59 
 48 
 1 3 4 7 8 9 10 11 12 13 14 15 
 16 17 19 21 22 23 24 25 26 27 28 29 
 31 32 33 34 35 36 37 39 40 41 43 44 
 46 47 49 50 51 52 53 54 55 56 58 59 
 59 
 1 2 3 4 5 6 7 8 9 10 11 12 
 13 14 15 16 17 18 19 20 21 22 23 24 
 25 26 27 28 29 30 31 32 33 34 35 36 
 37 38 39 40 41 42 43 44 45 46 47 48 
 49 50 51 52 53 54 55 56 57 58 59 
 3 
 15 42 44 
 51 
 1 2 3 4 5 6 7 8 9 10 11 12 
 13 14 15 16 17 18 19 20 21 22 23 24 
 25 26 27 28 29 30 32 33 34 36 37 38 
 39 40 44 45 46 47 48 49 52 53 54 56 
 57 58 59 
 17 
 1 7 9 20 21 25 33 34 35 39 43 44 
 47 49 50 55 58 
 57 
 1 2 3 4 5 6 7 8 9 10 11 12 
 13 14 15 16 17 18 19 20 21 22 23 24 
 25 26 27 28 29 30 31 32 33 34 35 36 
 37 39 40 42 43 44 45 46 47 48 49 50 
 51 52 53 54 55 56 57 58 59 
 39 
 2 3 4 5 6 7 8 15 16 17 19 21 
 22 25 27 28 29 30 31 33 34 35 36 37 
 38 40 41 44 46 48 49 51 53 54 55 56 
 57 58 59 
 3 
 25 32 55 
 37 
 1 4 6 7 9 10 12 14 15 16 17 18 
 20 21 22 25 26 27 29 32 33 34 35 36 
 37 38 39 40 41 42 44 50 51 52 53 55 
 58 
 39 
 4 8 9 10 12 13 15 16 19 20 21 23 
 24 25 26 27 28 31 32 33 36 37 39 40 
 41 42 43 44 45 47 48 49 51 53 54 55 
 56 57 59 
 13 
 2 8 13 24 26 28 30 39 40 44 54 55 
 58 
 44 
 2 3 5 6 7 8 9 10 13 14 16 18 
 19 21 22 23 24 25 27 28 29 30 31 33 
 34 35 36 37 39 43 44 45 46 47 48 50 
 51 52 54 55 56 57 58 59 
 25 
 4 5 6 11 12 13 15 23 24 25 28 30 
 31 32 33 35 41 44 45 46 48 50 53 58 
 59 
 14 
 4 5 8 10 11 15 17 20 33 40 41 42 
 43 59 
 42 
 1 2 4 5 6 7 8 9 10 11 12 14 
 15 18 19 20 21 22 23 24 25 26 27 28 
 29 31 33 35 37 38 41 42 43 44 45 46 
 50 51 52 53 54 59 
 31 
 4 5 8 10 15 16 19 23 24 26 28 30 
 31 34 35 37 38 39 40 41 43 45 46 47 
 49 50 51 54 55 57 59 
 21 
 1 6 9 12 13 14 18 22 24 25 37 42 
 44 45 46 48 49 52 53 54 56 
 11 
 1 7 11 17 34 36 39 45 48 50 52 
 26 
 1 3 5 12 13 19 21 23 26 28 32 34 
 35 36 38 40 41 43 45 48 51 52 53 55 
 57 59 
 14 
 1 2 4 8 27 28 32 33 38 39 46 47 
 48 50 
 52 
 1 2 3 4 5 6 7 8 9 10 11 12 
 13 14 15 16 17 18 19 20 21 22 23 24 
 25 26 27 29 30 33 35 36 37 38 39 40 
 41 43 44 45 47 48 49 50 51 52 53 54 
 55 57 58 59 
 44 
 1 2 3 6 7 9 10 11 12 13 14 15 
 17 18 19 20 21 22 23 24 25 27 29 30 
 31 33 34 35 37 39 40 41 42 43 46 47 
 49 50 51 54 55 57 58 59 
 41 
 1 4 5 6 7 9 10 11 14 16 20 21 
 22 23 24 26 27 28 29 32 33 34 35 36 
 39 40 41 43 44 45 46 50 51 52 53 54 
 55 56 57 58 59 
 18 
 7 9 17 18 22 29 31 32 33 36 41 42 
 45 46 47 49 53 58 
 12 
 2 7 15 20 23 25 26 37 39 41 43 59 
 50 
 1 2 3 5 6 7 10 11 12 13 14 15 
 16 18 19 20 21 22 23 24 25 26 27 28 
 29 30 31 33 34 35 36 37 38 39 40 41 
 42 43 45 47 48 49 50 51 52 53 55 56 
 57 58 
 18 
 6 7 8 9 19 21 22 24 27 30 32 34 
 42 49 52 53 54 59 
 14 
 7 21 25 26 27 33 36 45 47 48 50 51 
 56 57 
 23 
 5 8 12 13 15 16 17 18 19 23 27 28 
 34 37 38 40 44 45 46 50 53 58 59 
 35 
 1 5 8 9 10 11 12 14 16 17 20 22 
 24 25 26 27 28 29 32 33 36 37 38 39 
 43 45 46 47 48 50 51 53 57 58 59 
 14 
 2 4 6 7 17 21 25 30 42 43 44 50 
 56 58 
 19 
 1 3 6 9 10 22 28 29 32 33 39 40 
 42 43 46 47 51 54 59 
 4 
 15 30 47 55 
 21 
 5 10 15 16 17 18 19 20 29 30 31 35 
 38 41 42 43 52 54 56 57 58 
 54 
 1 2 3 4 5 6 8 9 10 11 12 14 
 15 16 17 18 19 20 21 22 23 24 25 26 
 27 28 29 30 31 32 34 36 37 38 39 40 
 41 42 43 44 45 46 47 48 49 50 51 53 
 54 55 56 57 58 59 
 12 
 5 6 8 10 16 18 26 27 39 44 53 59 
 55 
 1 2 3 4 5 6 7 8 9 10 11 12 
 13 14 15 16 18 19 21 22 23 24 25 26 
 27 28 29 30 31 32 33 35 36 37 38 39 
 40 41 42 43 44 45 46 47 49 50 51 52 
 53 54 55 56 57 58 59 
 24 
 1 5 8 12 13 17 18 20 28 32 38 39 
 40 42 43 44 45 47 50 51 52 54 56 59 
 59 
 1 2 3 4 5 6 7 8 9 10 11 12 
 13 14 15 16 17 18 19 20 21 22 23 24 
 25 26 27 28 29 30 31 32 33 34 35 36 
 37 38 39 40 41 42 43 44 45 46 47 48 
 49 50 51 52 53 54 55 56 57 58 59 
 41 
 1 2 3 6 7 8 11 12 13 15 16 18 
 19 20 21 23 24 26 29 30 31 32 33 34 
 35 37 39 40 41 43 44 45 46 47 49 50 
 51 52 55 56 57 
 38 
 2 3 4 5 6 7 8 9 10 11 14 15 
 16 18 19 21 22 24 26 28 30 31 32 33 
 37 40 42 43 44 46 50 51 52 54 55 56 
 57 59 
 12 
 8 9 18 25 32 35 36 37 39 40 45 50 
 34 
 1 2 3 4 6 8 9 10 11 12 15 21 
 22 25 27 28 29 31 33 35 36 37 40 41 
 43 45 50 51 52 53 54 55 56 58 
 6 
 6 16 20 21 29 48 
 58 
 1 2 4 5 6 7 8 9 10 11 12 13 
 14 15 16 17 18 19 20 21 22 23 24 25 
 26 27 28 29 30 31 32 33 34 35 36 37 
 38 39 40 41 42 43 44 45 46 47 48 49 
 50 51 52 53 54 55 56 57 58 59 
 46 
 1 2 3 4 6 7 8 9 12 13 14 15 
 16 17 18 19 20 21 22 23 24 25 26 27 
 28 29 30 31 35 38 39 41 42 43 45 46 
 47 48 49 50 51 52 53 54 57 58 
 15 
 2 14 16 18 28 30 31 35 37 42 53 55 
 56 57 59 
 40 
 1 2 3 6 7 9 11 12 15 17 20 21 
 22 23 24 25 27 28 29 30 31 35 36 38 
 40 42 43 44 46 47 48 49 50 51 53 54 
 55 56 57 59 
 10 
 6 10 12 20 24 28 32 33 35 40 
 22 
 1 3 4 12 13 19 23 27 28 30 32 34 
 36 37 38 44 50 51 52 54 56 57 
 42 
 1 3 4 5 6 7 8 10 11 12 13 15 
 17 18 19 20 22 23 25 26 28 29 30 32 
 33 34 35 39 42 43 44 45 46 47 48 49 
 50 51 54 55 56 59 
 24 
 1 6 10 13 16 18 19 20 24 27 29 30 
 32 36 38 40 43 46 48 49 51 53 55 57 
 44 
 1 2 3 5 6 7 8 9 10 11 12 13 
 14 16 17 18 19 20 21 24 25 31 32 34 
 37 38 39 40 41 42 43 44 45 46 47 49 
 50 51 52 54 55 56 58 59 
 7 
 2 7 15 20 25 29 30 
 43 
 1 2 3 4 5 7 8 9 10 12 13 15 
 16 17 18 20 21 22 24 25 28 29 30 33 
 34 35 36 38 39 41 42 44 45 46 49 51 
 52 53 54 55 57 58 59 
 24 
 6 7 10 12 14 15 16 17 21 22 23 24 
 25 28 29 31 40 41 42 43 46 48 53 55 
 6 
 9 20 44 45 53 56 
 18 
 1 9 14 18 19 21 30 31 32 34 35 38 
 41 42 45 48 55 57 
 9 
 3 6 26 28 32 36 37 39 49 
 35 
 4 5 6 7 9 10 11 12 13 15 17 19 
 21 23 24 26 31 32 33 34 35 36 37 43 
 45 46 49 50 51 53 54 55 56 57 59 
 11 
 2 3 13 14 17 25 42 45 46 47 56 
 20 
 1 2 7 15 16 17 23 29 33 35 36 41 
 42 45 46 47 53 56 58 59 
 21 
 1 7 10 15 17 18 19 20 24 29 30 34 
 40 41 43 46 47 49 50 52 55 
 40 
 1 2 4 5 6 7 8 10 13 14 15 16 
 17 19 20 21 22 24 25 26 27 28 31 32 
 36 37 38 39 40 43 44 45 46 47 48 51 
 52 53 56 59 
 21 
 2 3 8 10 11 15 17 22 25 27 28 32 
 33 35 38 43 50 52 54 56 58 
 50 
 1 2 3 7 8 9 10 13 14 15 16 17 
 18 19 20 21 22 23 24 25 26 27 28 29 
 30 31 32 33 34 36 37 38 39 40 41 43 
 44 45 46 47 48 49 50 51 53 54 55 56 
 57 59 
 51 
 1 2 3 5 7 9 11 13 14 15 16 17 
 18 19 20 21 22 23 24 25 26 27 28 29 
 30 31 32 33 34 35 36 37 38 39 40 41 
 42 43 44 45 46 47 48 49 50 52 53 54 
 57 58 59 
 34 
 3 6 7 8 9 10 11 12 13 18 19 20 
 21 22 23 25 26 27 30 32 33 34 35 36 
 39 40 42 45 48 50 53 54 55 59 
 19 
 3 10 17 19 22 27 28 30 32 36 38 43 
 44 46 47 48 53 55 59 
 10 
 8 9 14 26 32 35 41 44 49 50 
 45 
 1 2 3 4 6 8 10 11 12 13 14 15 
 16 18 19 20 21 22 23 24 26 27 28 29 
 33 34 35 36 37 38 39 40 41 42 43 44 
 46 47 50 52 53 54 56 58 59 
 52 
 1 2 3 4 5 6 7 8 9 10 12 13 
 14 15 16 17 18 19 20 21 22 23 24 25 
 26 28 29 30 32 33 34 36 37 38 39 40 
 41 42 43 44 45 46 48 49 50 51 52 53 
 54 56 57 59 
 20 
 1 3 6 7 8 14 15 16 24 26 27 32 
 37 39 41 46 50 52 53 57 
 44 
 2 3 4 5 6 7 8 9 10 12 13 14 
 15 17 18 20 21 22 23 24 25 29 31 32 
 34 35 36 37 39 40 41 42 43 45 47 48 
 49 51 52 53 55 56 57 58 
 46 
 1 2 3 5 6 7 8 9 10 11 13 14 
 15 16 18 19 22 23 27 28 29 30 31 33 
 34 35 36 37 38 39 40 41 42 43 46 47 
 48 49 50 51 52 53 54 55 56 59 
 48 
 1 2 3 4 5 6 7 8 9 10 11 12 
 13 15 16 17 19 20 21 24 25 27 28 29 
 30 31 32 34 35 36 38 39 40 41 42 43 
 44 45 46 47 49 51 52 53 54 55 56 58 
 26 
 1 8 9 10 11 13 14 18 23 24 26 29 
 30 31 33 35 43 44 45 47 48 51 52 53 
 54 58 
 41 
 2 3 4 5 6 10 13 14 17 18 19 20 
 21 22 23 24 26 27 28 31 33 35 36 37 
 38 39 40 41 42 44 47 48 50 51 52 53 
 54 55 56 58 59 
 18 
 2 4 6 10 21 22 23 26 27 28 31 33 
 36 39 44 51 54 59 
 40 
 1 2 4 6 7 8 9 10 11 12 13 14 
 19 20 21 22 23 25 26 27 29 30 31 34 
 35 37 38 39 40 42 44 45 48 49 50 51 
 53 54 55 57 
 58 
 1 2 3 4 5 6 7 8 9 10 11 12 
 13 14 15 16 17 18 19 20 21 22 23 24 
 25 26 27 28 29 30 31 32 33 34 35 36 
 37 38 39 40 41 42 44 45 46 47 48 49 
 50 51 52 53 54 55 56 57 58 59 
 34 
 1 2 4 6 7 8 9 10 11 12 14 16 
 17 18 20 22 24 25 27 31 33 37 38 39 
 42 44 45 46 50 51 56 57 58 59 
 47 
 1 4 6 7 8 10 11 12 13 15 16 18 
 19 20 22 23 24 26 27 28 29 30 31 32 
 33 34 35 36 37 39 40 41 42 44 46 47 
 48 49 50 51 52 53 55 56 57 58 59 
 40 
 1 2 4 7 8 11 13 14 15 16 19 21 
 22 23 24 25 26 28 29 32 33 34 35 36 
 37 39 42 43 45 46 47 49 50 51 52 53 
 54 56 57 58 
 36 
 2 3 5 6 9 12 14 15 16 17 18 19 
 21 22 23 24 25 26 31 34 35 36 38 39 
 40 43 44 45 46 48 49 50 52 57 58 59 
 32 
 3 5 7 10 11 14 15 17 20 21 22 24 
 25 29 31 33 34 36 37 40 43 44 45 46 
 48 49 51 53 55 56 58 59 
 19 
 1 2 6 7 13 15 27 32 34 35 36 41 
 42 43 44 48 52 53 56 
 17 
 2 22 23 27 28 32 34 35 37 38 39 43 
 45 48 49 54 59 
 51 
 1 2 3 4 5 6 8 9 10 12 14 15 
 17 18 19 20 21 22 24 25 26 27 28 29 
 30 31 32 33 34 35 36 37 39 40 41 43 
 44 45 46 47 49 50 51 52 53 54 55 56 
 57 58 59 
 24 
 1 2 3 7 8 9 10 15 16 17 19 20 
 21 22 30 32 36 44 46 47 48 52 56 58 
 22 
 2 12 15 16 20 21 25 26 27 29 33 36 
 38 41 43 48 50 52 53 55 58 59 
 12 
 1 4 13 14 23 25 39 40 41 46 53 58 
 7 
 7 10 11 31 33 56 59 
 41 
 1 2 3 5 6 7 9 10 11 13 14 17 
 19 20 21 23 24 25 26 28 29 30 31 33 
 34 35 36 37 39 40 41 43 44 46 48 49 
 50 53 55 57 59 
 49 
 1 4 5 6 7 8 10 11 12 13 14 15 
 16 17 18 19 20 21 22 23 24 25 27 29 
 30 31 32 34 35 36 37 38 39 40 41 44 
 45 46 47 48 49 50 51 52 53 54 56 58 
 59 
 19 
 1 3 5 7 10 15 19 31 33 34 35 41 
 42 43 47 48 52 56 59 
 18 
 3 6 8 15 19 21 24 25 26 30 33 36 
 42 48 53 54 56 59 
 23 
 3 6 8 9 11 13 16 21 22 23 24 27 
 28 29 31 33 39 41 42 44 46 53 58 
 54 
 1 2 3 4 5 6 7 8 10 11 12 14 
 15 16 17 18 19 20 21 22 23 24 25 26 
 27 28 29 31 32 33 34 35 36 37 38 39 
 40 41 42 43 44 45 46 47 48 49 50 51 
 52 54 56 57 58 59 
 21 
 1 5 6 8 10 18 23 25 27 28 29 30 
 33 38 39 40 49 50 53 55 59 
 9 
 9 12 16 18 40 46 48 50 57 
 39 
 2 4 5 6 7 8 10 11 12 14 16 17 
 18 20 21 25 26 27 28 29 30 31 32 37 
 39 40 41 42 43 45 46 47 48 49 50 54 
 56 57 58 
 19 
 6 11 12 16 19 22 26 29 31 33 34 36 
 37 43 44 47 50 53 59 
 53 
 1 2 3 4 5 6 7 8 10 11 12 13 
 15 16 17 18 19 20 21 22 23 24 25 27 
 28 29 30 31 32 33 34 35 36 37 38 39 
 40 41 42 43 44 45 46 48 49 50 51 52 
 54 55 56 57 58 
 3 
 3 44 45 
 4 
 24 26 30 53 
 34 
 1 3 4 5 6 7 9 10 11 12 13 15 
 16 20 21 22 26 30 31 33 36 39 40 43 
 44 45 46 52 53 54 55 56 57 59 
 20 
 4 9 10 16 18 24 29 31 35 36 37 38 
 39 40 46 52 53 55 57 58 
 29 
 1 5 6 7 8 11 13 14 15 17 19 23 
 24 25 27 28 30 33 34 38 39 40 44 47 
 48 51 53 58 59 
 40 
 1 4 5 7 8 10 11 14 15 16 17 20 
 21 23 24 26 27 29 30 31 32 33 34 37 
 38 39 40 41 42 43 47 48 49 50 51 52 
 53 54 55 59 
 4 
 35 46 48 55 
 47 
 1 2 4 6 7 9 10 11 12 13 14 16 
 18 19 20 22 23 24 25 26 27 28 29 30 
 31 32 33 34 35 36 37 38 39 40 41 43 
 44 45 46 48 49 51 53 55 57 58 59 
 29 
 3 4 9 11 16 18 19 23 24 26 27 29 
 30 31 32 33 34 35 36 37 40 41 42 46 
 47 52 56 57 59 
 8 
 4 6 9 17 25 38 46 57 
 13 
 14 23 26 29 32 34 36 44 46 50 53 54 
 59 
 27 
 1 3 4 6 7 10 14 18 25 26 28 29 
 31 36 38 40 42 45 46 49 51 52 53 54 
 55 56 59 
 34 
 3 4 6 8 9 10 11 12 13 14 16 21 
 22 23 24 25 26 27 29 30 34 38 41 42 
 45 46 48 50 51 52 53 56 57 58 
 21 
 3 4 6 7 8 11 15 17 19 20 22 29 
 34 36 46 48 51 52 56 58 59 
 3 
 11 17 38 
 37 
 3 4 5 6 7 9 10 12 13 14 17 18 
 23 24 25 26 28 29 30 31 34 35 36 40 
 41 42 43 46 47 48 49 50 51 52 54 56 
 57 
 7 
 23 30 33 37 48 51 59 
 41 
 1 2 3 4 7 8 10 11 12 13 14 15 
 19 20 21 22 23 24 25 27 28 30 31 32 
 34 36 37 38 39 42 43 44 46 48 51 52 
 53 54 56 57 58 
 21 
 3 6 8 9 10 15 16 17 19 34 35 43 
 45 48 50 51 53 55 56 58 59 
 51 
 2 3 4 5 6 7 9 10 11 12 13 14 
 15 16 17 18 19 20 21 22 23 24 25 26 
 27 28 29 30 32 33 34 35 37 38 39 40 
 41 42 43 44 46 48 49 51 53 54 55 56 
 57 58 59 
 26 
 4 5 7 8 12 13 14 17 18 20 22 23 
 29 34 36 38 41 43 45 47 48 49 51 52 
 55 56 
 4 
 9 36 37 59 
 52 
 1 2 4 5 6 7 9 10 11 12 13 14 
 15 16 17 18 19 20 21 23 24 25 26 27 
 28 29 30 32 33 34 35 38 39 40 41 42 
 43 44 45 46 47 48 49 50 51 52 54 55 
 56 57 58 59 
 33 
 1 2 3 4 6 9 10 12 16 17 18 19 
 22 25 26 27 29 32 33 34 36 37 38 40 
 41 44 46 48 49 50 52 56 57 
 48 
 1 2 3 5 6 8 9 10 11 12 13 14 
 15 16 17 18 19 21 23 24 25 26 28 29 
 30 31 32 33 35 36 37 38 39 40 41 42 
 43 44 45 47 50 51 53 54 56 57 58 59 
 31 
 4 6 7 8 11 12 15 16 19 20 25 29 
 34 37 38 39 41 42 43 44 47 48 49 51 
 52 53 55 56 57 58 59 
 59 
 1 2 3 4 5 6 7 8 9 10 11 12 
 13 14 15 16 17 18 19 20 21 22 23 24 
 25 26 27 28 29 30 31 32 33 34 35 36 
 37 38 39 40 41 42 43 44 45 46 47 48 
 49 50 51 52 53 54 55 56 57 58 59 
 54 
 1 2 3 4 5 6 7 8 9 10 11 13 
 14 15 16 17 18 19 20 21 22 23 24 25 
 26 27 28 29 30 31 32 34 35 36 38 39 
 40 41 42 43 44 46 47 48 49 50 51 52 
 53 55 56 57 58 59 
 46 
 1 4 5 6 7 8 9 11 12 13 14 15 
 16 17 18 20 21 22 23 24 25 26 27 29 
 30 31 33 35 36 37 39 41 42 43 44 45 
 48 49 50 51 53 55 56 57 58 59 
 59 
 1 2 3 4 5 6 7 8 9 10 11 12 
 13 14 15 16 17 18 19 20 21 22 23 24 
 25 26 27 28 29 30 31 32 33 34 35 36 
 37 38 39 40 41 42 43 44 45 46 47 48 
 49 50 51 52 53 54 55 56 57 58 59 
 3 
 7 44 51 
 7 
 9 12 15 24 43 44 59 
 52 
 1 3 4 5 6 7 10 11 12 13 14 16 
 17 18 19 20 21 22 23 24 25 26 27 28 
 29 30 31 32 33 34 35 36 37 38 39 41 
 43 44 45 47 48 49 50 51 52 53 54 55 
 56 57 58 59 
 58 
 1 2 3 4 5 6 7 8 9 10 11 12 
 13 14 15 16 17 18 19 20 21 23 24 25 
 26 27 28 29 30 31 32 33 34 35 36 37 
 38 39 40 41 42 43 44 45 46 47 48 49 
 50 51 52 53 54 55 56 57 58 59 
 2 
 25 30 
 53 
 1 2 3 4 5 6 7 8 11 12 13 14 
 15 16 17 18 19 20 21 22 23 24 25 26 
 28 29 30 31 33 34 35 36 37 40 41 42 
 43 44 45 46 47 48 49 50 51 52 53 54 
 55 56 57 58 59 
 2 
 39 53 
 5 
 1 13 23 27 40 
 52 
 1 2 3 4 5 6 7 8 9 10 11 13 
 14 16 17 18 19 20 21 22 23 24 25 26 
 27 28 29 30 31 32 33 34 35 36 37 38 
 39 40 41 42 43 44 48 49 50 51 52 53 
 54 55 56 59 
 2 
 6 9 
 55 
 1 2 3 4 5 6 7 10 12 13 14 15 
 16 17 18 19 20 21 22 23 24 25 26 27 
 28 29 30 31 33 34 35 36 37 38 39 40 
 41 42 43 44 45 46 47 48 49 50 51 52 
 53 54 55 56 57 58 59 
 47 
 1 2 3 4 5 6 7 8 10 12 13 14 
 18 19 20 21 22 23 25 26 27 28 29 30 
 31 32 33 35 36 37 38 39 40 41 42 43 
 44 45 46 47 48 49 50 51 52 54 56 
 55 
 1 2 3 4 5 6 7 9 10 11 12 13 
 14 16 17 18 19 20 21 22 23 24 25 26 
 28 29 30 31 32 33 34 35 36 37 38 39 
 40 41 42 43 44 45 46 47 48 50 51 52 
 53 54 55 56 57 58 59 
 22 
 1 3 4 7 11 13 14 18 19 23 24 26 
 27 33 34 39 44 47 49 52 54 56 
 16 
 2 3 12 13 21 22 24 25 27 30 32 43 
 45 46 55 59 
 50 
 1 4 5 6 7 8 9 10 11 12 13 14 
 15 16 17 18 19 20 21 22 23 24 25 26 
 29 30 31 32 33 34 35 36 37 38 39 40 
 41 43 45 46 48 49 50 52 53 54 55 56 
 57 58 
 27 
 1 3 5 7 8 10 16 18 21 22 25 26 
 27 30 33 34 43 44 47 48 49 51 52 53 
 54 58 59 
 18 
 1 6 7 8 10 17 19 22 27 30 31 34 
 37 40 46 49 50 58 
 17 
 1 2 21 23 29 30 31 36 37 40 46 48 
 53 54 55 56 59 
 18 
 2 3 6 9 10 11 15 23 25 28 30 35 
 42 44 45 50 52 59 
 45 
 1 2 3 4 5 6 7 8 10 11 12 15 
 20 21 22 23 24 25 26 27 28 29 30 32 
 34 37 38 39 41 42 43 45 47 48 49 50 
 51 52 53 54 55 56 57 58 59 
 20 
 3 9 11 12 15 18 20 21 24 25 31 34 
 40 42 44 48 49 50 51 56 
 56 
 1 2 3 4 5 6 7 8 10 11 12 13 
 14 15 16 17 18 19 20 21 22 23 24 25 
 26 27 28 29 30 31 32 33 34 35 36 37 
 38 39 40 42 43 44 45 46 47 48 49 50 
 51 52 53 54 55 56 57 59 
 30 
 1 3 5 7 9 11 13 14 18 21 22 24 
 27 28 30 31 32 34 35 37 38 40 42 44 
 45 47 51 55 58 59 
 18 
 1 4 9 13 14 17 18 20 29 32 38 40 
 46 47 50 51 53 55 
 48 
 1 2 3 4 5 6 7 9 12 13 14 16 
 17 18 19 20 21 22 23 24 26 29 30 31 
 32 33 34 35 36 37 38 39 40 41 43 44 
 45 47 48 49 50 51 53 54 56 57 58 59 
 